(declare-fun h () (Array Int (Array Int Real)))
(declare-const GEN1 Int)
(declare-const GEN2 Int)
(declare-const GEN3 Int)
(declare-const GEN4 Int)
(declare-const BAV5 Bool)
(declare-const BAV6 Bool)
(declare-const BAV7 Bool)
(declare-const BAV8 Bool)
(assert (forall ((x1 Int)(x2 Int)(aar1 (Array Int (Array Int Real)))(aar2 (Array Int (Array Int Real)))) (or (not (= (select (select aar1 x1) x2) (select (select aar1 x2) x1))) (not (= (select (select aar2 x1) x2) (select (select aar2 x2) x1))))))
(assert (not (= (select (select h GEN1) GEN2) (select (select h GEN3) GEN4))))
(assert (= BAV5 (forall ((x1 Int)(x2 Int)(aar1 (Array Int (Array Int Real)))(aar2 (Array Int (Array Int Real)))) (or (not (= (select (select aar1 x1) x2) (select (select aar1 x2) x1))) (not (= (select (select aar2 x1) x2) (select (select aar2 x2) x1)))))))
(assert (= BAV6 (forall ((x1 Int)(x2 Int)(aar1 (Array Int (Array Int Real)))(aar2 (Array Int (Array Int Real)))) (= (select (select aar1 x1) x2) (select (select aar1 x2) x1)))))
(assert (= BAV7 (forall ((x1 Int)(x2 Int)(aar1 (Array Int (Array Int Real)))(aar2 (Array Int (Array Int Real)))) (= (select (select aar2 x1) x2) (select (select aar2 x2) x1)))))
(assert (= BAV8 (= (select (select h GEN1) GEN2) (select (select h GEN3) GEN4))))
(check-sat)
(get-model)
(exit)